 Run started: Sat, 20 Jun 2020 14:41:32 +0100

 Atomic calculation performed for Li: 1s2 2s1

 Converged in 47 iterations to an ae energy of -202.784 eV

   | Pseudopotential Report - Date of generation 20-06-2020   |
   | Element: Li Ionic charge:  3.00 Level of theory: PBE     |
   | Atomic Solver: Koelling-Harmon                           |
   |               Reference Electronic Structure             |
   |         Orbital         Occupation         Energy        |
   |            1s              2.000           -1.906        |
   |            2s              1.000           -0.106        |
   |                 Pseudopotential Definition               |
   |        Beta     l      e      Rc     scheme   norm       |
   |          1      0   -1.906   1.296     qc      0         |
   |          2      0   -0.106   1.296     qc      0         |
   |          3      0    0.250   1.296     qc      0         |
   |         loc     1    0.000   1.296     pn      0         |
   | Augmentation charge Rinner = 0.913                       |
   | No partial core correction                               |
   | "1|1.3|8|9|10|10U:20(qc=5)"                              |
   |      Author: Chris J. Pickard, Cambridge University      |

 Pseudo atomic calculation performed for Li 1s2 2s1

 Converged in 16 iterations to a total energy of -196.2692 eV

 Calculation parallelised over 16 processes.
 Data is distributed by G-vector(4-way) and k-point(4-way)

 ************************************ Title ************************************

 ***************************** General Parameters ******************************

 output verbosity                               : normal  (1)
 write checkpoint data to                       : li.check
 type of calculation                            : molecular dynamics
 stress calculation                             : on
 density difference calculation                 : off
 electron localisation func (ELF) calculation   : off
 Hirshfeld analysis                             : off
 unlimited duration calculation
 timing information                             : on
 write extra output files                       : on
 write final potential to formatted file        : off
 write final density to formatted file          : off
 write BibTeX reference list                    : on
 write OTFG pseudopotential files               : on
 write electrostatic potential file             : on
 write bands file                               : on
 checkpoint writing                             : both castep_bin and check files

 output         length unit                     : A
 output           mass unit                     : amu
 output           time unit                     : ps
 output         charge unit                     : e
 output           spin unit                     : hbar/2
 output         energy unit                     : eV
 output          force unit                     : eV/A
 output       velocity unit                     : A/ps
 output       pressure unit                     : GPa
 output     inv_length unit                     : 1/A
 output      frequency unit                     : cm-1
 output force constant unit                     : eV/A**2
 output         volume unit                     : A**3
 output   IR intensity unit                     : (D/A)**2/amu
 output         dipole unit                     : D
 output         efield unit                     : eV/A/e
 output        entropy unit                     : J/mol/K

 wavefunctions paging                           : none
 random number generator seed                   : randomised (144132853)
 data distribution                              : optimal for this architecture
 optimization strategy                          : maximize speed(+++)

 *********************** Exchange-Correlation Parameters ***********************

 using functional                               : Perdew Burke Ernzerhof
 relativistic treatment                         : Koelling-Harmon
 DFT+D: Semi-empirical dispersion correction    : off

 ************************* Pseudopotential Parameters **************************

 pseudopotential representation                 : reciprocal space
 <beta|phi> representation                      : reciprocal space
 spin-orbit coupling                            : off

 **************************** Basis Set Parameters *****************************

 plane wave basis set cut-off                   :   300.0000   eV
 size of standard grid                          :     2.0000
 size of   fine   grid                          :     3.0000
 size of   fine   gmax                          :    26.6208   1/A
 largest prime factor in FFT                    :          5
 finite basis set correction                    : automatic
 number of sample energies                      :          3
           sample  spacing                      :     5.0000   eV

 **************************** Electronic Parameters ****************************

 number of  electrons                           :  384.0
 net charge of system                           :  0.000
 treating system as non-spin-polarized
 number of bands                                :        230

 ********************* Electronic Minimization Parameters **********************

 Method: Treating system as metallic with density mixing treatment of electrons,
         and number of  SD  steps               :          1
         and number of  CG  steps               :          4

 total energy / atom convergence tol.           : 0.5000E-04   eV
 eigen-energy convergence tolerance             : 0.1000E-05   eV
 max force / atom convergence tol.              : ignored
 convergence tolerance window                   :          3   cycles
 max. number of SCF cycles                      :         30
 number of fixed-spin iterations                :         10
 smearing scheme                                : Gaussian
 smearing width                                 : 0.1000       eV
 Fermi energy convergence tolerance             : 0.2721E-13   eV
 periodic dipole correction                     : NONE

 ************************** Density Mixing Parameters **************************

 density-mixing scheme                          : Pulay
 max. length of mixing history                  :         20
 charge density mixing amplitude                : 0.5000
 cut-off energy for mixing                      :  300.0       eV
 charge density mixing g-vector                 :  1.500       1/A

 ************************ Molecular Dynamics Parameters ************************

 ensemble                                       : NVT
 temperature                                    :  500.0       K
 using                                          : Nose-Hoover chain thermostat
 with                                           :          5    thermostats
 with characteristic ionic time                 : 0.2500E-02   ps
 path integral MD                               : OFF
 time step                                      : 0.5000E-03   ps
 number of MD steps                             :         50
 ab initio properties sampled every             :         10   MD steps
 enhanced equilibration method                  : BERENDSEN
  ion  equilibration time                       : 0.2500E-02   ps
  cell equilibration time                       : 0.2500E-01   ps
 total equilibration time                       :  1.000       ps
 using best-fit first order extrapolation for wavefunctions and charge density
 backup results every                           :      86400   seconds

 MD SCF energy / atom convergence tol.          : 0.1000E-04   eV
 MD SCF eigenenergies tolerance                 : 0.1000E-05   eV
 MD SCF convergence tolerance window            :          2   cycles
 write MD trajectory file                       : on

                                      Unit Cell
        Real Lattice(A)                      Reciprocal Lattice(1/A)
     9.4498000     0.0000000     0.0000000        0.664901406   0.000000000   0.000000000
     0.0000000     9.4498000     0.0000000        0.000000000   0.664901406   0.000000000
     0.0000000     0.0000000     9.4498000        0.000000000   0.000000000   0.664901406

                       Lattice parameters(A)       Cell Angles
                    a =      9.449800          alpha =   90.000000
                    b =      9.449800          beta  =   90.000000
                    c =      9.449800          gamma =   90.000000

                       Current cell volume =           843.855045       A**3
                                   density =             1.052844   AMU/A**3
                                           =             1.748289     g/cm^3

                                     Cell Contents
                         Total number of ions in cell =  128
                      Total number of species in cell =    1
                        Max number of any one species =  128

            x  Element    Atom        Fractional coordinates of atoms  x
            x            Number           u          v          w      x
            x  Li           1         0.091395   0.091395   0.091395   x
            x  Li           2         0.341395   0.341395   0.341395   x
            x  Li           3         0.158605   0.408605   0.341395   x
            x  Li           4         0.408605   0.158605   0.091395   x
            x  Li           5         0.408605   0.341395   0.158605   x
            x  Li           6         0.158605   0.091395   0.408605   x
            x  Li           7         0.341395   0.158605   0.408605   x
            x  Li           8         0.091395   0.408605   0.158605   x
            x  Li           9         0.216395   0.216395   0.216395   x
            x  Li          10         0.466395   0.466395   0.466395   x
            x  Li          11         0.033605   0.283605   0.466395   x
            x  Li          12         0.283605   0.033605   0.216395   x
            x  Li          13         0.466395   0.033605   0.283605   x
            x  Li          14         0.216395   0.283605   0.033605   x
            x  Li          15         0.283605   0.466395   0.033605   x
            x  Li          16         0.033605   0.216395   0.283605   x
            x  Li          17         0.591395   0.091395   0.091395   x
            x  Li          18         0.841395   0.341395   0.341395   x
            x  Li          19         0.658605   0.408605   0.341395   x
            x  Li          20         0.908605   0.158605   0.091395   x
            x  Li          21         0.908605   0.341395   0.158605   x
            x  Li          22         0.658605   0.091395   0.408605   x
            x  Li          23         0.841395   0.158605   0.408605   x
            x  Li          24         0.591395   0.408605   0.158605   x
            x  Li          25         0.716395   0.216395   0.216395   x
            x  Li          26         0.966395   0.466395   0.466395   x
            x  Li          27         0.533605   0.283605   0.466395   x
            x  Li          28         0.783605   0.033605   0.216395   x
[...]
      2  -2.51536587E+004  5.52354169E+000   2.45495335E-004     261.26  <-- SCF
      3  -2.51536548E+004  5.52349302E+000  -3.02425703E-005     275.45  <-- SCF
      4  -2.51536546E+004  5.52348784E+000  -1.94975238E-006     286.72  <-- SCF
------------------------------------------------------------------------ <-- SCF

[...]

 ... finished MD iteration          1

[...]

 ***************** Stress Tensor *****************
 *          Cartesian components (GPa)           *
 *             x             y             z     *
 *  x    -91.106105      0.180663      0.161744  *
 *  y      0.180663    -91.048152      0.067489  *
 *  z      0.161744      0.067489    -91.057120  *
 *  Pressure:   91.0705                          *

 ****** Finite Temperature Pressure Tensor *******
 *          Cartesian components (GPa)           *
 *             x             y             z     *
 *  x     92.065147     -0.142446     -0.090670  *
 *  y     -0.142446     91.999103      0.096007  *
 *  z     -0.090670      0.096007     91.961782  *
 *  Finite Temperature Pressure:  -92.0087       *

[...]

 ... finished MD iteration         49

 Starting MD iteration         50 ...

                                     Cell Contents

            x  Element    Atom        Fractional coordinates of atoms    x
            x            Number           u          v          w        x
            x   Li         1          0.094688   0.088255   0.084151     x
            x   Li         2          0.334622   0.324635   0.327102     x
            x   Li         3          0.177638   0.420555   0.354611     x
            x   Li         4          0.402155   0.199499   0.085866     x
            x   Li         5          0.437248   0.351625   0.200314     x
            x   Li         6          0.151980   0.100877   0.420255     x
            x   Li         7          0.329178   0.155723   0.412807     x
            x   Li         8          0.100607   0.421618   0.172546     x
            x   Li         9          0.201856   0.203320   0.229334     x
            x   Li        10          0.458603   0.452824   0.452724     x
            x   Li        11          0.038000   0.321717   0.453899     x
            x   Li        12          0.298123   0.031787   0.195360     x
            x   Li        13          0.450106   0.031341   0.292345     x
            x   Li        14          0.220599   0.280221   0.056753     x
            x   Li        15          0.296955   0.456793   0.046418     x
            x   Li        16          0.034686   0.226804   0.285796     x
            x   Li        17          0.554068   0.087313   0.112710     x
            x   Li        18          0.817476   0.307635   0.314351     x
            x   Li        19          0.658212   0.405250   0.329380     x
            x   Li        20          0.910428   0.168495   0.078467     x
            x   Li        21          0.941414   0.328113   0.148249     x
            x   Li        22          0.680208   0.096551   0.391762     x
            x   Li        23          0.868579   0.155659   0.428117     x
            x   Li        24          0.575104   0.436006   0.146321     x
            x   Li        25          0.709437   0.220931   0.178420     x
            x   Li        26          0.919375   0.472028   0.452379     x
            x   Li        27          0.529023   0.299525   0.490332     x
            x   Li        28          0.791950   0.042211   0.207634     x
            x   Li        29          0.954148   0.040934   0.284805     x
            x   Li        30          0.678728   0.267242   0.034124     x
            x   Li        31          0.799942   0.439831   0.058968     x
            x   Li        32          0.543871   0.209555   0.315586     x
            x   Li        33          0.083087   0.570757   0.058189     x
            x   Li        34          0.323970   0.803018   0.329241     x
            x   Li        35          0.177564   0.922647   0.344769     x
            x   Li        36          0.429201   0.673694   0.073136     x
            x   Li        37          0.418729   0.839078   0.164613     x
            x   Li        38          0.153029   0.579661   0.409150     x
            x   Li        39          0.317458   0.658418   0.442625     x
            x   Li        40          0.086816   0.928285   0.182777     x
            x   Li        41          0.216375   0.697046   0.193126     x
            x   Li        42          0.446589   0.971912   0.455529     x
            x   Li        43          0.030909   0.774903   0.456221     x
            x   Li        44          0.307684   0.541666   0.210969     x
            x   Li        45          0.448843   0.562536   0.308249     x
            x   Li        46          0.186331   0.787850   0.043835     x
            x   Li        47          0.293546   0.936835   0.032864     x
            x   Li        48          0.059077   0.720522   0.283306     x
            x   Li        49          0.608627   0.594155   0.093570     x
            x   Li        50          0.841046   0.851135   0.351588     x
            x   Li        51          0.657639   0.925679   0.346084     x
            x   Li        52          0.926658   0.656493   0.060181     x
            x   Li        53          0.916270   0.807504   0.183047     x
            x   Li        54          0.652809   0.575626   0.382418     x
            x   Li        55          0.834763   0.653258   0.398689     x
            x   Li        56          0.602246   0.915852   0.159500     x
            x   Li        57          0.730554   0.714508   0.208309     x
            x   Li        58          0.979065   0.958090   0.465455     x
            x   Li        59          0.534144   0.789079   0.456513     x
            x   Li        60          0.809936   0.527646   0.216768     x
[...]
            x   Li       114          0.829841   0.853003   0.817452     x
            x   Li       115          0.656075   0.904394   0.825581     x
            x   Li       116          0.902799   0.683707   0.603301     x
            x   Li       117          0.920202   0.861719   0.665074     x
            x   Li       118          0.667236   0.555095   0.922255     x
            x   Li       119          0.808431   0.688418   0.911577     x
            x   Li       120          0.621771   0.909289   0.641048     x
            x   Li       121          0.688417   0.703203   0.685833     x
            x   Li       122          0.945648   0.949726   0.984448     x
            x   Li       123          0.558487   0.774240   0.951307     x
            x   Li       124          0.785682   0.542909   0.722919     x
            x   Li       125          0.952649   0.531274   0.787543     x
            x   Li       126          0.726301   0.766143   0.515686     x
            x   Li       127          0.782026   0.974891   0.536320     x
            x   Li       128          0.530687   0.701499   0.787485     x

------------------------------------------------------------------------ <-- SCF
SCF loop      Energy           Fermi           Energy gain       Timer   <-- SCF
                               energy          per atom          (sec)   <-- SCF
------------------------------------------------------------------------ <-- SCF
Initial  -2.51487157E+004  0.00000000E+000                      4197.98  <-- SCF
      1  -2.51495715E+004  5.61034627E+000   6.68630304E-003    4206.46  <-- SCF
      2  -2.51496137E+004  5.61033932E+000   3.29231351E-004    4220.41  <-- SCF
      3  -2.51496155E+004  5.61034159E+000   1.44772273E-005    4230.55  <-- SCF
      4  -2.51496156E+004  5.61033953E+000   6.40727508E-007    4239.42  <-- SCF
------------------------------------------------------------------------ <-- SCF

Final energy, E             =  -25149.50576776     eV
Final free energy (E-TS)    =  -25149.61558939     eV
(energies not corrected for finite basis set)

NB est. 0K energy (E-0.5TS)      =  -25149.56067857     eV

[...]

            x                                               MD Data:     x
            x              time :      0.025000                   ps     x
            x   Potential Energy: -25149.653038                   eV     x
            x   Kinetic   Energy:      8.118567                   eV     x
            x   Total     Energy: -25141.534471                   eV     x
            x   Hamilt    Energy: -25141.534471                   eV     x
            x        Temperature:    494.551673                    K     x

[...]

 ****** Finite Temperature Pressure Tensor *******
 *          Cartesian components (GPa)           *
 *             x             y             z     *
 *  x     89.380439     -0.968977     -0.293509  *
 *  y     -0.968977     88.457887     -0.500571  *
 *  z     -0.293509     -0.500571     89.762092  *
 *  Finite Temperature Pressure:  -89.2001       *

 ... finished MD iteration         50
 Finished MD

  *** There were at least     1 warnings during this run ***
  *** => please check the whole of this file carefully!  ***

Writing analysis data to li.castep_bin

Writing model to li.check

 ************************************** Forces **************************************
 *                           Cartesian components (eV/A)                            *
 *                         x                    y                    z              *
 * Li              1     -0.61540             -0.45544              0.01704         *
 * Li              2     -0.58892             -0.00495              0.58820         *
 * Li              3      0.55893             -0.34594             -0.28730         *
 * Li              4      0.11391             -0.63309              0.50337         *
 * Li              5      0.39384             -0.77659             -0.45825         *
 * Li              6      0.15946             -0.32377             -0.18838         *
 * Li              7     -0.26822              0.48025              0.07006         *
 * Li              8      0.58212              0.18826             -0.44953         *
 * Li              9      0.42997             -0.24996             -0.27642         *
 * Li             10      0.02403              0.11692             -0.03797         *
 * Li             11     -0.25538             -0.06121              0.28965         *
 * Li             12     -0.26691              0.27149             -0.11822         *
 * Li             13      0.04632              0.36845             -0.17799         *
 * Li             14      0.01058              0.19358              0.09137         *
 * Li             15     -0.32092              0.09919              0.63151         *
 * Li             16     -0.13264             -0.32487              0.56150         *
 * Li             17     -0.05410              0.26175             -0.58842         *
 * Li             18      0.64085              0.88001              0.58469         *
 * Li             19      0.11131             -0.16684             -0.36539         *
 * Li             20     -0.00079             -0.04287             -0.16500         *
 * Li             21     -0.52505              0.22988              0.39732         *
 * Li             22     -0.30565              0.11330              0.58098         *
 * Li             23     -0.43065              0.36500              0.27649         *
 * Li             24      0.51427             -0.41995              0.17314         *
 * Li             25     -0.04106             -0.58701              1.21395         *
 * Li             26      0.49630             -0.05646             -0.07962         *
 * Li             27     -0.02861             -0.26754             -0.29678         *
 * Li             28      0.08599             -0.14658              0.34321         *
 * Li             29      0.17385             -0.03071             -0.29888         *
 * Li             30      0.22036              0.91424             -0.87078         *
 * Li             31     -0.43145              0.00357             -0.47605         *
 * Li             32     -0.09205             -0.09729             -0.48753         *
 * Li             33      0.08698              0.01789              0.43658         *
 * Li             34      0.18407              0.46265              0.02735         *
 * Li             35      0.03512             -0.21619              0.04104         *
 * Li             36      0.24295             -0.21486              0.56826         *
 * Li             37      0.07429             -0.43323              0.13657         *
 * Li             38      0.10159              0.06167              0.42542         *
 * Li             39      0.01560              0.17948             -0.46537         *
 * Li             40     -0.22707             -0.20071             -0.37344         *
 * Li             41     -0.08330             -0.22655             -0.07138         *
 * Li             42      0.33680             -1.21157              0.04092         *
 * Li             43      0.08151              0.17603             -0.00961         *
 * Li             44     -0.41424             -0.03766             -0.23307         *
 * Li             45      0.22509              0.23312             -0.59877         *
 * Li             46      0.19241             -0.07746             -0.02751         *
 * Li             47     -0.13772              0.34292              0.07711         *
 * Li             48     -0.03479             -0.16159             -0.10638         *
 * Li             49     -0.53523              0.52558              0.19732         *
 * Li             50     -0.34694              0.03825             -0.46373         *
 * Li             51      0.08898             -0.45981             -0.27939         *
 * Li             52     -0.56400             -0.05296             -0.15914         *
 * Li             53      0.26780              0.77428             -0.62731         *
 * Li             54      0.14430              0.05069              0.28430         *
 * Li             55      0.34588              0.12550              0.60473         *
 * Li             56     -0.25565             -0.17359             -0.12323         *
 * Li             57     -0.33302             -0.19696             -0.03635         *
 * Li             58     -0.12060             -0.07765              0.06140         *
 * Li             59     -0.15080              0.47189              0.07454         *
 * Li             60     -0.07339             -0.08968             -0.57022         *
[...]
 * Li            114      0.11083             -0.52465              0.53852         *
 * Li            115      0.08725              0.04184              0.04607         *
 * Li            116      0.41917             -0.49017             -0.23436         *
 * Li            117      0.12100             -0.42505             -0.44090         *
 * Li            118      0.25195              0.59650             -0.29399         *
 * Li            119      0.32858             -0.86498             -0.41926         *
 * Li            120     -0.62632              0.41505             -0.19585         *
 * Li            121      0.47041              0.00215              0.97302         *
 * Li            122      0.17261              0.43882             -0.10324         *
 * Li            123     -0.15421              0.69770              0.30637         *
 * Li            124      0.10234              0.17691             -0.22695         *
 * Li            125      0.28712              0.39809             -0.16961         *
 * Li            126     -0.37946              0.33235              0.08201         *
 * Li            127      0.36191              0.02072             -0.04019         *
 * Li            128      0.40212             -0.26626              0.10520         *

 ***************** Stress Tensor *****************
 *          Cartesian components (GPa)           *
 *             x             y             z     *
 *  x    -88.352110      1.035682      0.398377  *
 *  y      1.035682    -87.576793      0.635931  *
 *  z      0.398377      0.635931    -88.588669  *
 *  Pressure:   88.1725                          *

Writing analysis data to li.castep_bin

Writing model to li.check

 A BibTeX formatted list of references used in this run has been written to
 li.bib

Initialisation time =      8.83 s
Calculation time    =   4276.50 s
Finalisation time   =      2.71 s
Total time          =   4288.04 s

Overall parallel efficiency rating: Good (76%)

Data was distributed by:-
G-vector (4-way); efficiency rating: Very good (81%)
k-point (4-way); efficiency rating: Excellent (93%)